
Gurobi 12.0.2 (win64) logging started Mon Nov  3 17:49:25 2025

Set parameter LogFile to value "resultados DATA_1_n50m05b2d2\instancia_10_log.txt"
Set parameter TimeLimit to value 1800
Gurobi Optimizer version 12.0.2 build v12.0.2rc0 (win64 - Windows 10.0 (19045.2))

CPU model: Intel(R) Core(TM) i5-6300U CPU @ 2.40GHz, instruction set [SSE2|AVX|AVX2]
Thread count: 2 physical cores, 4 logical processors, using up to 4 threads

Non-default parameters:
TimeLimit  1800

Optimize a model with 61 rows, 96 columns and 1556 nonzeros
Model fingerprint: 0x38ed2319
Variable types: 0 continuous, 96 integer (96 binary)
Coefficient statistics:
  Matrix range     [1e+00, 1e+00]
  Objective range  [5e-02, 3e-01]
  Bounds range     [1e+00, 1e+00]
  RHS range        [1e+00, 8e+00]
Found heuristic solution: objective 0.4618800
Presolve removed 42 rows and 73 columns
Presolve time: 0.01s
Presolved: 19 rows, 23 columns, 115 nonzeros
Found heuristic solution: objective 0.1738800
Variable types: 0 continuous, 23 integer (23 binary)

Root relaxation: objective 5.453920e-01, 12 iterations, 0.00 seconds (0.00 work units)

    Nodes    |    Current Node    |     Objective Bounds      |     Work
 Expl Unexpl |  Obj  Depth IntInf | Incumbent    BestBd   Gap | It/Node Time

     0     0    0.54539    0    9    0.46188    0.54539  18.1%     -    0s
H    0     0                       0.4664000    0.54539  16.9%     -    0s
H    0     0                       0.5147840    0.54539  5.95%     -    0s

Explored 1 nodes (12 simplex iterations) in 0.03 seconds (0.00 work units)
Thread count was 4 (of 4 available processors)

Solution count 4: 0.514784 0.4664 0.46188 0.17388 
No other solutions better than 0.514784

Optimal solution found (tolerance 1.00e-04)
Best objective 5.147840000000e-01, best bound 5.147840000000e-01, gap 0.0000%
